<number of tasks>
100

<cycle time>
1000

<order strength>
0.895


<task times>
1 486
2 309
3 472
4 327
5 379
6 578
7 689
8 527
9 556
10 352
11 511
12 325
13 673
14 477
15 321
16 538
17 401
18 275
19 279
20 459
21 566
22 469
23 467
24 545
25 460
26 567
27 467
28 531
29 497
30 384
31 292
32 447
33 467
34 683
35 691
36 567
37 271
38 348
39 530
40 398
41 637
42 434
43 457
44 601
45 330
46 526
47 439
48 497
49 615
50 598
51 566
52 377
53 356
54 551
55 402
56 298
57 367
58 537
59 411
60 369
61 549
62 455
63 567
64 628
65 484
66 407
67 727
68 580
69 418
70 361
71 457
72 608
73 567
74 549
75 395
76 559
77 461
78 660
79 517
80 676
81 547
82 389
83 576
84 546
85 613
86 578
87 339
88 477
89 617
90 611
91 602
92 683
93 645
94 601
95 509
96 468
97 263
98 395
99 335
100 358

<precedence relations>
1,6
1,7
1,8
2,6
2,7
2,8
3,6
3,7
3,8
4,6
4,7
4,8
5,6
5,7
5,8
6,9
6,10
7,9
7,10
8,9
8,10
9,11
9,12
9,13
9,14
9,15
10,11
10,12
10,13
10,14
10,15
11,16
11,17
11,18
12,16
12,17
12,18
13,16
13,17
13,18
14,16
14,17
14,18
15,16
15,17
15,18
16,19
16,20
16,21
16,22
17,19
17,20
17,21
17,22
18,19
18,20
18,21
18,22
19,23
20,23
21,23
22,23
23,24
23,25
23,26
23,27
24,28
24,29
24,30
24,31
25,28
25,29
25,30
25,31
26,28
26,29
26,30
26,31
27,28
27,29
27,30
27,31
28,32
28,33
28,34
28,35
29,32
29,33
29,34
29,35
30,32
30,33
30,34
30,35
31,32
31,33
31,34
31,35
32,36
32,37
32,38
32,39
33,36
33,37
33,38
33,39
34,36
34,37
34,38
34,39
35,36
35,37
35,38
35,39
36,40
36,41
36,42
36,43
37,40
37,41
37,42
38,40
38,41
38,42
38,43
39,40
39,47
40,44
40,45
41,44
41,45
41,46
42,44
42,45
42,47
43,45
43,47
44,48
44,49
44,50
45,48
45,49
45,50
46,48
46,49
46,50
47,48
47,49
47,50
48,52
49,51
49,52
50,71
50,72
50,73
50,75
51,53
51,54
51,55
52,53
52,54
52,55
53,56
53,57
54,60
54,61
54,66
55,56
55,58
56,59
56,60
56,62
57,61
57,84
58,65
58,68
59,64
60,75
60,84
61,64
61,74
62,63
62,65
62,66
62,67
64,73
64,88
65,69
66,68
66,69
66,70
67,68
67,70
68,71
68,76
68,78
69,71
69,72
69,73
69,74
69,75
70,71
70,74
71,77
72,76
72,77
72,78
73,76
73,87
74,76
74,91
76,95
77,79
77,80
77,82
78,81
78,82
79,83
80,84
81,85
81,86
82,83
82,85
82,87
83,89
84,87
84,90
86,88
86,92
87,91
87,92
88,93
89,90
89,92
90,93
90,100
91,93
92,94
93,96
94,95
94,97
94,98
96,99
98,100

<end>
